Traveling Salesman Problem/TSP_generados/Aleatorio1621103319_9.tsp
NAME: Aleatorio1621103319_9.tsp
COMMENT: Randomly generated scenario
TYPE: TSP
DIMENSION: 9
EDGE_WEIGHT_TYPE: ATT
NODE_COORD_SECTION
1 18.73 44.37
2 8.62 24.95
3 39.41 36.59
4 19.79 7.89
5 5.25 35.78
6 40.62 18.26
7 26.91 7.45
8 15.19 26.24
9 40.0 33.59
