Traveling Salesman Problem/TSP_generados/Aleatorio1621103319_9.opt.tour
NAME: Aleatorio1621103319_9.opt.tour
COMMENT: Optimal solution for Aleatorio1621103319_9 (118.02748463646145)
TYPE: TOUR
DIMENSION: 9
TOUR_SECTION
1 5 2 8 4 7 6 9 3
-1
EOF
